
;this file is automatically generated: Mon Nov 02 10:43:04 CST 2020

;declarations generated

(declare-fun oclExcludes ( Int Int) Bool)
(declare-fun Cardinality ( Int) Int)
(declare-fun type_f6715791_2411_42e5_a347_adaf033dae51_Class9 ( Int) Bool)
(declare-fun type_f6715791_2411_42e5_a347_adaf033dae51_Class7 ( Int) Bool)
(declare-fun type_f6715791_2411_42e5_a347_adaf033dae51_Class8 ( Int) Bool)
(declare-fun type_f6715791_2411_42e5_a347_adaf033dae51_Class5 ( Int) Bool)
(declare-fun type_f6715791_2411_42e5_a347_adaf033dae51_Class6 ( Int) Bool)
(declare-fun type_f6715791_2411_42e5_a347_adaf033dae51_Class3 ( Int) Bool)
(declare-fun type_f6715791_2411_42e5_a347_adaf033dae51_Class4 ( Int) Bool)
(declare-fun type_f6715791_2411_42e5_a347_adaf033dae51_Class1 ( Int) Bool)
(declare-fun type_f6715791_2411_42e5_a347_adaf033dae51_Class2 ( Int) Bool)
(declare-fun type_f6715791_2411_42e5_a347_adaf033dae51_Class0 ( Int) Bool)
(declare-fun obj_9b561b27_fcf3_4165_aceb_9e37563aead9 ( Int) Int)
(declare-fun oclSelect ( Int Bool) Int)
(declare-fun type_f6715791_2411_42e5_a347_adaf033dae51_Class11 ( Int) Bool)
(declare-fun type_f6715791_2411_42e5_a347_adaf033dae51_Class10 ( Int) Bool)
(declare-fun type_f6715791_2411_42e5_a347_adaf033dae51_Class13 ( Int) Bool)
(declare-fun type_f6715791_2411_42e5_a347_adaf033dae51_Class12 ( Int) Bool)
(declare-fun type_f6715791_2411_42e5_a347_adaf033dae51_Class15 ( Int) Bool)
(declare-fun type_f6715791_2411_42e5_a347_adaf033dae51_Class14 ( Int) Bool)
(declare-fun type_f6715791_2411_42e5_a347_adaf033dae51_Class17 ( Int) Bool)
(declare-fun type_f6715791_2411_42e5_a347_adaf033dae51_Class16 ( Int) Bool)
(declare-fun Enum0 ( Int) Int)
(declare-fun Enum1 ( Int) Int)
(declare-fun Enum2 ( Int) Int)
(declare-fun container_ ( Int) Int)
(declare-fun oclIncludes ( Int Int) Bool)
(declare-fun ObjAt ( Int Int) Int)

;formula(s) generated
(assert (forall ((p Int)) (=> ( type_f6715791_2411_42e5_a347_adaf033dae51_Class17 p )  (and (>= ( Enum0 ( obj_9b561b27_fcf3_4165_aceb_9e37563aead9 p )  )  0) (<= ( Enum0 ( obj_9b561b27_fcf3_4165_aceb_9e37563aead9 p )  )  4)))))
(assert (! (forall ((v Int)) (=> ( type_f6715791_2411_42e5_a347_adaf033dae51_Class17 v )  (not (= ( Enum0 ( obj_9b561b27_fcf3_4165_aceb_9e37563aead9 v )  )  2) ))):named l0))
(assert (! (exists ((o Int)) ( type_f6715791_2411_42e5_a347_adaf033dae51_Class0 ( obj_9b561b27_fcf3_4165_aceb_9e37563aead9 o )  ) ):named c0))
(assert (! (exists ((o Int)) ( type_f6715791_2411_42e5_a347_adaf033dae51_Class1 ( obj_9b561b27_fcf3_4165_aceb_9e37563aead9 o )  ) ):named c1))
(assert (! (exists ((o Int)) (and (and ( type_f6715791_2411_42e5_a347_adaf033dae51_Class10 ( obj_9b561b27_fcf3_4165_aceb_9e37563aead9 o )  )  ( type_f6715791_2411_42e5_a347_adaf033dae51_Class14 ( obj_9b561b27_fcf3_4165_aceb_9e37563aead9 o )  ) ) ( type_f6715791_2411_42e5_a347_adaf033dae51_Class16 ( obj_9b561b27_fcf3_4165_aceb_9e37563aead9 o )  ) )):named c2))
(assert (! (exists ((o Int)) ( type_f6715791_2411_42e5_a347_adaf033dae51_Class11 ( obj_9b561b27_fcf3_4165_aceb_9e37563aead9 o )  ) ):named c3))
(assert (! (exists ((o Int)) ( type_f6715791_2411_42e5_a347_adaf033dae51_Class12 ( obj_9b561b27_fcf3_4165_aceb_9e37563aead9 o )  ) ):named c4))
(assert (! (exists ((o Int)) ( type_f6715791_2411_42e5_a347_adaf033dae51_Class13 ( obj_9b561b27_fcf3_4165_aceb_9e37563aead9 o )  ) ):named c5))
(assert (! (exists ((o Int)) ( type_f6715791_2411_42e5_a347_adaf033dae51_Class14 ( obj_9b561b27_fcf3_4165_aceb_9e37563aead9 o )  ) ):named c6))
(assert (! (exists ((o Int)) ( type_f6715791_2411_42e5_a347_adaf033dae51_Class15 ( obj_9b561b27_fcf3_4165_aceb_9e37563aead9 o )  ) ):named c7))
(assert (! (exists ((o Int)) (and ( type_f6715791_2411_42e5_a347_adaf033dae51_Class16 ( obj_9b561b27_fcf3_4165_aceb_9e37563aead9 o )  )  ( type_f6715791_2411_42e5_a347_adaf033dae51_Class14 ( obj_9b561b27_fcf3_4165_aceb_9e37563aead9 o )  ) )):named c8))
(assert (! (exists ((o Int)) ( type_f6715791_2411_42e5_a347_adaf033dae51_Class17 ( obj_9b561b27_fcf3_4165_aceb_9e37563aead9 o )  ) ):named c9))
(assert (! (exists ((o Int)) ( type_f6715791_2411_42e5_a347_adaf033dae51_Class2 ( obj_9b561b27_fcf3_4165_aceb_9e37563aead9 o )  ) ):named c10))
(assert (! (exists ((o Int)) ( type_f6715791_2411_42e5_a347_adaf033dae51_Class3 ( obj_9b561b27_fcf3_4165_aceb_9e37563aead9 o )  ) ):named c11))
(assert (! (exists ((o Int)) ( type_f6715791_2411_42e5_a347_adaf033dae51_Class4 ( obj_9b561b27_fcf3_4165_aceb_9e37563aead9 o )  ) ):named c12))
(assert (! (exists ((o Int)) ( type_f6715791_2411_42e5_a347_adaf033dae51_Class5 ( obj_9b561b27_fcf3_4165_aceb_9e37563aead9 o )  ) ):named c13))
(assert (! (exists ((o Int)) ( type_f6715791_2411_42e5_a347_adaf033dae51_Class6 ( obj_9b561b27_fcf3_4165_aceb_9e37563aead9 o )  ) ):named c14))
(assert (! (exists ((o Int)) ( type_f6715791_2411_42e5_a347_adaf033dae51_Class7 ( obj_9b561b27_fcf3_4165_aceb_9e37563aead9 o )  ) ):named c15))
(assert (! (exists ((o Int)) ( type_f6715791_2411_42e5_a347_adaf033dae51_Class8 ( obj_9b561b27_fcf3_4165_aceb_9e37563aead9 o )  ) ):named c16))
(assert (! (exists ((o Int)) ( type_f6715791_2411_42e5_a347_adaf033dae51_Class9 ( obj_9b561b27_fcf3_4165_aceb_9e37563aead9 o )  ) ):named c17))

 ;end of formula 